language ESSENCE' 1.0

$
$ data from van Hentenryck
$
letting n be 5
letting rankWomen be
[[1, 2, 4, 3, 5],
 [3, 5, 1, 2, 4],
 [5, 4, 2, 1, 3],
 [1, 3, 5, 4, 2],
 [4, 2, 3, 5, 1]
]

letting rankMen  be
 [[5, 1, 2, 4, 3],
  [4, 1, 3, 2, 5],
  [5, 3, 2, 4, 1],
  [1, 5, 4, 3, 2],
  [4, 3, 2, 1, 5]
 ]

